0 105 
1 1 27 34 37 49 51 61 83 87 111 
2 2 3 14 25 42 66 73 96 122 
3 
4 54 57 
5 64 81 
6 26 46 
7 10 22 52 59 70 77 80 82 88 91 95 108 109 112 115 118 
8 19 31 38 44 58 65 79 86 98 103 106 113 123 124 
9 21 30 35 117 
10 92 
11 5 17 33 69 93 97 100 101 
12 62 
13 11 40 67 116 
14 0 13 29 43 89 90 110 
15 9 18 28 32 53 60 114 120 
16 45 
17 75 
18 68 
19 6 7 16 63 107 
20 24 39 78 99 
21 8 
22 48 76 
23 
24 23 
25 4 12 20 36 47 55 56 72 74 84 85 94 102 119 
26 15 50 
27 71 104 
28 41 
29 121 
